
%FILE DATA:	Soccer Computational Problem for MiniZinc Models	%
%AUTHOR:	Jack Wall	%
%CONTACT:  	116397063@umail.ucc.ie			%
%LAST UPDATE:	02/14/2020, 08:50:14						%
%DESCRIPTION: 	40 games played with 16 games left				%


n=8; %number of teams

%Games to play
games=[|1,7|1,2|4,8|7,2|5,4|4,1|7,6|4,6|7,5|6,5|7,8|6,2|7,1|5,7|8,2|1,3|];

%Initial points
iPoints=[16,16,19,9,15,9,12,11];

%POSITION CONSTRAINTS
% [|teamID, operator, position|...]
% operators index:
%  1 for =  operator
%  2 for >  operator
%  3 for >= operator
%  4 for <  operator
%  5 for <= operator
positionConstraints=[|5,3,1|1,1,2|2,4,4|3,5,4|];